StudentsNr = 10;
InstructorsNr = 99;
DaysNr = 2;
SlotsPerDay = 15;
AvailabilitySlotsLenght = 15;
RoomNr = 1;
ProgrammNr = 2;
DegreeNr = 3;
RolesNr = 2;
CoursesNr = 4;
InstructorsProgramm = [{1}, {2}, {2}, {1}, {2}, {1}, {2}, {1, 2}, {1, 2}, {1, 2}, {1}, {2}, {1}, {2}, {2}, {2}, {1}, {1, 2}, {1, 2}, {2}, {2}, {1}, {1}, {1}, {1}, {1, 2}, {1}, {2}, {1}, {2}, {1, 2}, {1, 2}, {1}, {1, 2}, {1}, {2}, {1}, {1, 2}, {1, 2}, {2}, {1}, {1}, {1}, {1}, {2}, {2}, {1, 2}, {1}, {1}, {1}, {2}, {1}, {2}, {2}, {1, 2}, {1, 2}, {2}, {2}, {2}, {1}, {1}, {2}, {1}, {2}, {2}, {1}, {1, 2}, {1}, {1, 2}, {2}, {1, 2}, {1}, {1, 2}, {1}, {1}, {1, 2}, {1}, {1}, {2}, {2}, {2}, {1, 2}, {1, 2}, {1, 2}, {1}, {2}, {1}, {2}, {2}, {1}, {2}, {1, 2}, {2}, {1}, {1}, {1, 2}, {1}, {2}, {1}];
InstructorRolesPerProgramm = [|{11, 24, 26, 31, 37, 39, 42, 43, 44, 49, 56, 60, 66, 69, 72, 77, 82, 94, 95, 96, 97}, {6, 8, 11, 18, 24, 32, 38, 39, 41, 49, 55, 67, 71, 72, 73, 75, 76, 77, 84, 87, 95, 99}|{2, 7, 12, 14, 20, 26, 28, 31, 36, 39, 40, 51, 54, 56, 58, 59, 62, 64, 69, 81, 82, 88, 89, 96}, {3, 8, 12, 14, 15, 16, 18, 20, 21, 28, 32, 36, 38, 39, 40, 45, 51, 53, 54, 55, 58, 62, 67, 70, 71, 73, 76, 80, 81, 84, 86, 88, 91, 93}|];
InstructorsAvailability = [|1, 1, |0, 1, |1, 1, |0, 0, |1, 1, |1, 1, |1, 1, |1, 1, |0, 0, |0, 1, |0, 1, |0, 1, |1, 0, |0, 1, |0, 0, |0, 0, |0, 0, |1, 1, |1, 1, |1, 1, |0, 1, |0, 1, |1, 1, |1, 1, |0, 1, |1, 1, |1, 1, |0, 1, |0, 1, |0, 1, |0, 1, |0, 1, |1, 0, |0, 1, |1, 1, |1, 0, |0, 1, |1, 1, |0, 1, |1, 1, |0, 1, |0, 1, |1, 1, |0, 1, |0, 1, |0, 1, |0, 1, |1, 0, |0, 0, |1, 0, |1, 1, |1, 0, |0, 1, |1, 1, |1, 1, |0, 1, |1, 1, |0, 0, |0, 1, |0, 0, |0, 1, |1, 1, |1, 1, |1, 1, |1, 1, |0, 0, |0, 1, |0, 1, |1, 1, |0, 1, |0, 1, |0, 1, |0, 1, |1, 1, |1, 1, |1, 1, |1, 1, |0, 1, |0, 1, |0, 1, |1, 1, |0, 0, |0, 1, |1, 1, |1, 1, |1, 1, |0, 1, |0, 0, |1, 0, |1, 0, |1, 1, |1, 1, |0, 0, |0, 0, |0, 0, |0, 0, |1, 1, |1, 1, |0, 0|];
StudentsProgramm = [1, 1, 2, 1, 2, 2, 2, 2, 1, 2];
StudentsDegree = [3, 2, 2, 2, 1, 1, 1, 2, 2, 1];
StudentsSupervisorId = [23, 50, 8, 26, 57, 5, 92, 30, 66, 16];
StudentsCourseIds = [{1, 3, 4}, {1, 2, 3, 4}, {1, 2, 3, 4}, {1, 2, 3, 4}, {1, 2, 3, 4}, {1, 2, 3, 4}, {1, 2, 3, 4}, {1, 2, 3, 4}, {1, 2, 3, 4}, {1, 2, 3, 4}];
StudentsAvailability = [|0, 1, |0, 1, |1, 1, |1, 1, |0, 0, |0, 0, |0, 1, |1, 1, |1, 1, |1, 1|];
TheoryticalMinCard = [0, 0, 0, 0, 0, 1, 0, 0, 0, 0];
CoursesInstructorIds = [{1, 3, 6, 7, 9, 13, 14, 18, 20, 21, 23, 25, 26, 27, 29, 30, 31, 32, 37, 40, 41, 43, 46, 49, 51, 52, 53, 54, 55, 56, 57, 60, 61, 63, 65, 66, 67, 71, 72, 73, 75, 78, 79, 80, 82, 85, 88, 89, 90, 91, 96, 97, 98, 99}, {1, 4, 7, 10, 11, 12, 14, 15, 16, 19, 22, 23, 27, 29, 31, 32, 33, 35, 36, 38, 39, 40, 42, 45, 47, 49, 52, 53, 54, 61, 63, 64, 65, 66, 68, 70, 72, 73, 74, 75, 76, 78, 79, 80, 81, 82, 83, 84, 89, 90, 92, 94, 97, 98, 99}, {1, 3, 7, 12, 16, 19, 20, 21, 28, 33, 34, 36, 37, 38, 43, 45, 47, 48, 53, 56, 59, 62, 63, 65, 66, 70, 76, 77, 83, 84, 86, 87, 90, 92, 93, 94, 95, 96}, {1, 2, 3, 6, 7, 8, 9, 15, 16, 22, 23, 24, 25, 26, 27, 29, 30, 34, 36, 37, 38, 40, 41, 43, 44, 45, 47, 48, 49, 50, 51, 53, 54, 55, 58, 59, 60, 61, 62, 64, 65, 69, 70, 72, 73, 74, 75, 76, 77, 80, 81, 83, 85, 86, 87, 88, 91, 92, 94, 95, 96, 97, 99}];
RolesDemands = [9, 14];
RolesContinuity = [];
ExamLen = [1, 1, 1, 1, 2, 2, 2, 1, 1, 2];
LunchTsMinLen = 0;
LunchStarts = [5..8, 21..26];
SupervisorAvailable = 5;
OptimalLunchLenght = [1, 1];
OptimalStartTs = [0, 0];
OptimalFinishTs = [2, 15];
MinimizeRooms = 0;
RolesSoftContinuity = [|1, 2|2, 3|];
SameDegreeInRoom = 10;
Mergeability = 2;
